c Result of efficient AIG-to-CNF conversion using package CNF
p cnf 124 441
-2 3 76 0
-2 -3 -76 0
2 -3 76 0
2 3 -76 0
-3 -4 -70 0
-3 4 70 0
3 4 -70 0
3 -4 70 0
-4 -5 -57 0
-4 5 57 0
4 5 -57 0
4 -5 57 0
-5 6 42 0
-5 -6 -42 0
5 -6 42 0
5 6 -42 0
-6 7 39 0
-6 -7 -39 0
6 -7 39 0
6 7 -39 0
-7 8 26 0
-7 -8 -26 0
7 -8 26 0
7 8 -26 0
-8 9 21 0
-8 -9 -21 0
8 -9 21 0
8 9 -21 0
-9 10 15 0
-9 -10 -15 0
9 -10 15 0
9 10 -15 0
-10 -11 -14 0
-10 11 14 0
10 11 -14 0
10 -11 14 0
-11 -12 -13 0
-11 12 13 0
11 12 -13 0
11 -12 13 0
12 -110 -122 0
-12 110 0
-12 122 0
13 -116 -117 0
-13 116 0
-13 117 0
14 -109 -119 0
-14 109 0
-14 119 0
-15 16 17 0
-15 16 18 0
15 -16 0
15 -17 -18 0
16 -109 -110 -116 -117 0
-16 117 0
-16 109 0
-16 116 0
-16 110 0
17 -112 -119 0
-17 112 0
-17 119 0
-18 -19 -20 0
-18 19 20 0
18 19 -20 0
18 -19 20 0
19 -110 -117 0
-19 110 0
-19 117 0
20 -109 -116 0
-20 109 0
-20 116 0
-21 -22 -25 0
-21 22 25 0
21 22 -25 0
21 -22 25 0
-22 -23 -24 0
-22 23 24 0
22 23 -24 0
22 -23 24 0
23 -112 -115 0
-23 112 0
-23 115 0
24 -114 -120 0
-24 114 0
-24 120 0
25 -111 -113 0
-25 111 0
-25 113 0
-26 27 28 0
-26 28 34 0
-26 27 34 0
26 -27 -34 0
26 -28 -34 0
26 -27 -28 0
-27 17 18 0
-27 -17 -18 0
27 -17 18 0
27 17 -18 0
-28 29 30 0
-28 29 31 0
28 -29 0
28 -30 -31 0
29 -109 -110 -112 -116 0
-29 116 0
-29 109 0
-29 112 0
-29 110 0
30 -114 -119 0
-30 114 0
-30 119 0
-31 -32 -33 0
-31 32 33 0
31 32 -33 0
31 -32 33 0
32 -109 -110 0
-32 109 0
-32 110 0
33 -112 -116 0
-33 112 0
-33 116 0
-34 -35 -38 0
-34 35 38 0
34 35 -38 0
34 -35 38 0
-35 -36 -37 0
-35 36 37 0
35 36 -37 0
35 -36 37 0
36 -114 -115 0
-36 114 0
-36 115 0
37 -113 -120 0
-37 113 0
-37 120 0
38 -111 -121 0
-38 111 0
-38 121 0
-39 -40 -41 0
-39 40 41 0
39 40 -41 0
39 -40 41 0
-40 36 38 0
-40 37 38 0
-40 36 37 0
40 -36 -37 0
40 -37 -38 0
40 -36 -38 0
41 -121 -123 0
-41 121 0
-41 123 0
-42 43 45 0
-42 45 56 0
-42 43 56 0
42 -45 -56 0
42 -43 -45 0
42 -43 -56 0
-43 34 44 0
-43 -34 -44 0
43 -34 44 0
43 34 -44 0
-44 27 28 0
-44 -27 -28 0
44 -27 28 0
44 27 -28 0
-45 46 47 0
-45 47 53 0
-45 46 53 0
45 -46 -53 0
45 -47 -53 0
45 -46 -47 0
-46 30 31 0
-46 -30 -31 0
46 -30 31 0
46 30 -31 0
-47 48 49 0
-47 48 50 0
47 -48 0
47 -49 -50 0
48 -110 -112 -114 -116 0
-48 116 0
-48 110 0
-48 114 0
-48 112 0
49 -113 -119 0
-49 113 0
-49 119 0
-50 -51 -52 0
-50 51 52 0
50 51 -52 0
50 -51 52 0
51 -110 -112 0
-51 110 0
-51 112 0
52 -114 -116 0
-52 114 0
-52 116 0
-53 -54 -55 0
-53 54 55 0
53 54 -55 0
53 -54 55 0
54 -113 -115 0
-54 113 0
-54 115 0
55 -120 -121 0
-55 120 0
-55 121 0
56 -54 -55 0
-56 54 0
-56 55 0
57 -58 -60 0
-57 58 0
-57 60 0
-58 56 59 0
-58 -56 -59 0
58 -56 59 0
58 56 -59 0
-59 43 45 0
-59 -43 -45 0
59 -43 45 0
59 43 -45 0
60 -61 -63 0
-60 61 0
-60 63 0
-61 53 62 0
-61 -53 -62 0
61 -53 62 0
61 53 -62 0
-62 46 47 0
-62 -46 -47 0
62 -46 47 0
62 46 -47 0
-63 64 65 0
-63 65 69 0
-63 64 69 0
63 -65 -69 0
63 -64 -65 0
63 -64 -69 0
-64 49 50 0
-64 -49 -50 0
64 -49 50 0
64 49 -50 0
-65 66 68 0
-65 67 68 0
-65 66 67 0
65 -66 -67 0
65 -67 -68 0
65 -66 -68 0
66 -110 -114 0
-66 110 0
-66 114 0
67 -113 -116 0
-67 113 0
-67 116 0
68 -119 -121 0
-68 119 0
-68 121 0
69 -115 -121 0
-69 115 0
-69 121 0
70 -58 61 -63 -71 0
70 -58 -61 63 -71 0
-70 71 0
-70 61 63 0
-70 58 0
-70 -61 -63 0
71 69 -72 -73 -75 0
71 -69 72 -73 -75 0
-71 73 0
-71 69 72 0
-71 75 0
-71 -69 -72 0
-72 64 65 0
-72 -64 -65 0
72 -64 65 0
72 64 -65 0
-73 68 74 0
-73 -68 -74 0
73 -68 74 0
73 68 -74 0
-74 -66 -67 0
-74 66 67 0
74 66 -67 0
74 -66 67 0
75 -110 -113 -116 -121 0
-75 121 0
-75 110 0
-75 116 0
-75 113 0
-76 77 93 0
-76 -77 -93 0
76 -77 93 0
76 77 -93 0
-77 78 84 0
-77 -78 -84 0
77 -78 84 0
77 78 -84 0
-78 79 80 0
-78 80 82 0
-78 79 82 0
78 -79 -82 0
78 -80 -82 0
78 -79 -80 0
-79 30 55 0
-79 54 55 0
-79 30 54 0
79 -30 -54 0
79 -54 -55 0
79 -30 -55 0
-80 36 81 0
-80 -36 -81 0
80 -36 81 0
80 36 -81 0
-81 -17 -38 0
-81 17 38 0
81 17 -38 0
81 -17 38 0
-82 18 83 0
-82 -18 -83 0
82 -18 83 0
82 18 -83 0
-83 -29 -37 0
-83 29 37 0
83 29 -37 0
83 -29 37 0
-84 85 88 0
-84 -85 -88 0
84 -85 88 0
84 85 -88 0
-85 86 87 0
-85 -86 -87 0
85 -86 87 0
85 86 -87 0
-86 16 22 0
-86 -16 -22 0
86 -16 22 0
86 16 -22 0
-87 29 37 0
-87 18 29 0
-87 18 37 0
87 -18 -29 0
87 -29 -37 0
87 -18 -37 0
-88 89 91 0
-88 -89 -91 0
88 -89 91 0
88 89 -91 0
-89 11 90 0
-89 -11 -90 0
89 -11 90 0
89 11 -90 0
-90 17 38 0
-90 36 38 0
-90 17 36 0
90 -17 -36 0
90 -36 -38 0
90 -17 -38 0
-91 25 92 0
-91 -25 -92 0
91 -25 92 0
91 25 -92 0
-92 -14 -41 0
-92 14 41 0
92 14 -41 0
92 -14 41 0
-93 94 97 0
-93 97 99 0
-93 94 99 0
93 -94 -99 0
93 -97 -99 0
93 -94 -97 0
-94 31 95 0
-94 31 48 0
-94 48 95 0
94 -48 -95 0
94 -31 -95 0
94 -31 -48 0
-95 54 96 0
-95 -54 -96 0
95 -54 96 0
95 54 -96 0
-96 -30 -55 0
-96 30 55 0
96 30 -55 0
96 -30 55 0
-97 82 98 0
-97 -82 -98 0
97 -82 98 0
97 82 -98 0
-98 79 80 0
-98 -79 -80 0
98 -79 80 0
98 79 -80 0
-99 100 102 0
-99 102 104 0
-99 100 104 0
99 -100 -104 0
99 -102 -104 0
99 -100 -102 0
-100 49 101 0
-100 69 101 0
-100 49 69 0
100 -49 -69 0
100 -69 -101 0
100 -49 -101 0
101 -67 -68 0
-101 67 0
-101 68 0
-102 95 103 0
-102 -95 -103 0
102 -95 103 0
102 95 -103 0
-103 -31 -48 0
-103 31 48 0
103 31 -48 0
103 -31 48 0
-104 50 105 0
-104 105 107 0
-104 50 107 0
104 -50 -107 0
104 -105 -107 0
104 -50 -105 0
-105 101 106 0
-105 -101 -106 0
105 -101 106 0
105 101 -106 0
-106 -49 -69 0
-106 49 69 0
106 49 -69 0
106 -49 69 0
-107 75 108 0
-107 66 75 0
-107 66 108 0
107 -66 -75 0
107 -75 -108 0
107 -66 -108 0
-108 -67 -68 0
-108 67 68 0
108 67 -68 0
108 -67 68 0
-124 0
2 0

